Configuration:
CPXPARAM_Advance=1
CPXPARAM_Barrier_Algorithm=0
CPXPARAM_Barrier_ColNonzeros=0
CPXPARAM_Barrier_Crossover=0
CPXPARAM_Barrier_Limits_Corrections=-1
CPXPARAM_Barrier_Ordering=0
CPXPARAM_Barrier_StartAlg=1
CPXPARAM_Emphasis_MIP=1
CPXPARAM_Emphasis_Memory=0
CPXPARAM_Emphasis_Numerical=0
CPXPARAM_Feasopt_Mode=0
CPXPARAM_LPMethod=0
CPXPARAM_MIP_Cuts_Cliques=3
CPXPARAM_MIP_Cuts_Covers=0
CPXPARAM_MIP_Cuts_Disjunctive=1
CPXPARAM_MIP_Cuts_FlowCovers=1
CPXPARAM_MIP_Cuts_GUBCovers=0
CPXPARAM_MIP_Cuts_Gomory=1
CPXPARAM_MIP_Cuts_Implied=2
CPXPARAM_MIP_Cuts_MIRCut=2
CPXPARAM_MIP_Cuts_PathCut=0
CPXPARAM_MIP_Limits_AggForCut=3
CPXPARAM_MIP_Limits_CutPasses=0
CPXPARAM_MIP_Limits_CutsFactor=-1
CPXPARAM_MIP_Limits_GomoryCand=50
CPXPARAM_MIP_Limits_GomoryPass=0
CPXPARAM_MIP_Limits_Nodes=9223372036800000000
CPXPARAM_MIP_Limits_ProbeTime=1e+75
CPXPARAM_MIP_Limits_RepairTries=0
CPXPARAM_MIP_Limits_StrongCand=10
CPXPARAM_MIP_Limits_StrongIt=0
CPXPARAM_MIP_OrderType=0
CPXPARAM_MIP_Strategy_BBInterval=7
CPXPARAM_MIP_Strategy_Branch=0
CPXPARAM_MIP_Strategy_Dive=0
CPXPARAM_MIP_Strategy_File=1
CPXPARAM_MIP_Strategy_HeuristicFreq=0
CPXPARAM_MIP_Strategy_LBHeur=0
CPXPARAM_MIP_Strategy_NodeSelect=1
CPXPARAM_MIP_Strategy_Order=1
CPXPARAM_MIP_Strategy_PresolveNode=0
CPXPARAM_MIP_Strategy_Probe=0
CPXPARAM_MIP_Strategy_RINSHeur=0
CPXPARAM_MIP_Strategy_StartAlgorithm=0
CPXPARAM_MIP_Strategy_SubAlgorithm=0
CPXPARAM_MIP_Strategy_VariableSelect=0
CPXPARAM_Network_NetFind=2
CPXPARAM_Network_Pricing=0
CPXPARAM_Parallel=1
CPXPARAM_Preprocessing_Aggregator=-1
CPXPARAM_Preprocessing_BoundStrength=-1
CPXPARAM_Preprocessing_CoeffReduce=-1
CPXPARAM_Preprocessing_Dependency=-1
CPXPARAM_Preprocessing_Dual=0
CPXPARAM_Preprocessing_Fill=10
CPXPARAM_Preprocessing_NumPass=-1
CPXPARAM_Preprocessing_Presolve=1
CPXPARAM_Preprocessing_QPMakePSD=1
CPXPARAM_Preprocessing_Reduce=3
CPXPARAM_Preprocessing_Relax=-1
CPXPARAM_Preprocessing_RepeatPresolve=-1
CPXPARAM_Preprocessing_Symmetry=-1
CPXPARAM_Read_Scale=0
CPXPARAM_Sifting_Algorithm=0
CPXPARAM_Simplex_Crash=1
CPXPARAM_Simplex_DGradient=0
CPXPARAM_Simplex_Limits_Perturbation=0
CPXPARAM_Simplex_Limits_Singularity=10
CPXPARAM_Simplex_PGradient=0
CPXPARAM_Simplex_Pricing=0
CPXPARAM_Simplex_Refactor=0
ObjectiveValue=19.4
Gap=19.4
UpperBound=1.6004e+06
LowerBound=1.28994e+06
SolverRuntimeSeconds=5.01271
SolverTerminationStatus=Normal
TimeEvaluated=116
MipStartUsed=0
ProducedMipStart=0
EndConfiguration
Configuration:
CPXPARAM_Advance=1
CPXPARAM_Barrier_Algorithm=0
CPXPARAM_Barrier_ColNonzeros=0
CPXPARAM_Barrier_Crossover=0
CPXPARAM_Barrier_Limits_Corrections=-1
CPXPARAM_Barrier_Ordering=0
CPXPARAM_Barrier_StartAlg=1
CPXPARAM_Emphasis_MIP=1
CPXPARAM_Emphasis_Memory=0
CPXPARAM_Emphasis_Numerical=0
CPXPARAM_Feasopt_Mode=0
CPXPARAM_LPMethod=0
CPXPARAM_MIP_Cuts_Cliques=-1
CPXPARAM_MIP_Cuts_Covers=0
CPXPARAM_MIP_Cuts_Disjunctive=1
CPXPARAM_MIP_Cuts_FlowCovers=1
CPXPARAM_MIP_Cuts_GUBCovers=0
CPXPARAM_MIP_Cuts_Gomory=1
CPXPARAM_MIP_Cuts_Implied=2
CPXPARAM_MIP_Cuts_MIRCut=2
CPXPARAM_MIP_Cuts_PathCut=0
CPXPARAM_MIP_Limits_AggForCut=3
CPXPARAM_MIP_Limits_CutPasses=0
CPXPARAM_MIP_Limits_CutsFactor=-1
CPXPARAM_MIP_Limits_GomoryCand=50
CPXPARAM_MIP_Limits_GomoryPass=0
CPXPARAM_MIP_Limits_Nodes=9223372036800000000
CPXPARAM_MIP_Limits_ProbeTime=1e+75
CPXPARAM_MIP_Limits_RepairTries=0
CPXPARAM_MIP_Limits_StrongCand=10
CPXPARAM_MIP_Limits_StrongIt=0
CPXPARAM_MIP_OrderType=0
CPXPARAM_MIP_Strategy_BBInterval=7
CPXPARAM_MIP_Strategy_Branch=0
CPXPARAM_MIP_Strategy_Dive=0
CPXPARAM_MIP_Strategy_File=1
CPXPARAM_MIP_Strategy_HeuristicFreq=0
CPXPARAM_MIP_Strategy_LBHeur=0
CPXPARAM_MIP_Strategy_NodeSelect=1
CPXPARAM_MIP_Strategy_Order=1
CPXPARAM_MIP_Strategy_PresolveNode=0
CPXPARAM_MIP_Strategy_Probe=0
CPXPARAM_MIP_Strategy_RINSHeur=0
CPXPARAM_MIP_Strategy_StartAlgorithm=0
CPXPARAM_MIP_Strategy_SubAlgorithm=0
CPXPARAM_MIP_Strategy_VariableSelect=0
CPXPARAM_Network_NetFind=2
CPXPARAM_Network_Pricing=0
CPXPARAM_Parallel=1
CPXPARAM_Preprocessing_Aggregator=-1
CPXPARAM_Preprocessing_BoundStrength=-1
CPXPARAM_Preprocessing_CoeffReduce=-1
CPXPARAM_Preprocessing_Dependency=-1
CPXPARAM_Preprocessing_Dual=0
CPXPARAM_Preprocessing_Fill=10
CPXPARAM_Preprocessing_NumPass=-1
CPXPARAM_Preprocessing_Presolve=1
CPXPARAM_Preprocessing_QPMakePSD=1
CPXPARAM_Preprocessing_Reduce=3
CPXPARAM_Preprocessing_Relax=-1
CPXPARAM_Preprocessing_RepeatPresolve=-1
CPXPARAM_Preprocessing_Symmetry=-1
CPXPARAM_Read_Scale=0
CPXPARAM_Sifting_Algorithm=0
CPXPARAM_Simplex_Crash=1
CPXPARAM_Simplex_DGradient=0
CPXPARAM_Simplex_Limits_Perturbation=0
CPXPARAM_Simplex_Limits_Singularity=10
CPXPARAM_Simplex_PGradient=0
CPXPARAM_Simplex_Pricing=0
CPXPARAM_Simplex_Refactor=0
ObjectiveValue=21.64
Gap=21.64
UpperBound=1.62121e+06
LowerBound=1.27038e+06
SolverRuntimeSeconds=5.00487
SolverTerminationStatus=Normal
TimeEvaluated=121
MipStartUsed=0
ProducedMipStart=0
EndConfiguration
Configuration:
CPXPARAM_Advance=1
CPXPARAM_Barrier_Algorithm=0
CPXPARAM_Barrier_ColNonzeros=0
CPXPARAM_Barrier_Crossover=0
CPXPARAM_Barrier_Limits_Corrections=-1
CPXPARAM_Barrier_Ordering=0
CPXPARAM_Barrier_StartAlg=1
CPXPARAM_Emphasis_MIP=1
CPXPARAM_Emphasis_Memory=0
CPXPARAM_Emphasis_Numerical=0
CPXPARAM_Feasopt_Mode=0
CPXPARAM_LPMethod=0
CPXPARAM_MIP_Cuts_Cliques=3
CPXPARAM_MIP_Cuts_Covers=0
CPXPARAM_MIP_Cuts_Disjunctive=1
CPXPARAM_MIP_Cuts_FlowCovers=1
CPXPARAM_MIP_Cuts_GUBCovers=1
CPXPARAM_MIP_Cuts_Gomory=1
CPXPARAM_MIP_Cuts_Implied=2
CPXPARAM_MIP_Cuts_MIRCut=2
CPXPARAM_MIP_Cuts_PathCut=0
CPXPARAM_MIP_Limits_AggForCut=3
CPXPARAM_MIP_Limits_CutPasses=0
CPXPARAM_MIP_Limits_CutsFactor=-1
CPXPARAM_MIP_Limits_GomoryCand=50
CPXPARAM_MIP_Limits_GomoryPass=0
CPXPARAM_MIP_Limits_Nodes=9223372036800000000
CPXPARAM_MIP_Limits_ProbeTime=1e+75
CPXPARAM_MIP_Limits_RepairTries=0
CPXPARAM_MIP_Limits_StrongCand=10
CPXPARAM_MIP_Limits_StrongIt=0
CPXPARAM_MIP_OrderType=0
CPXPARAM_MIP_Strategy_BBInterval=7
CPXPARAM_MIP_Strategy_Branch=0
CPXPARAM_MIP_Strategy_Dive=0
CPXPARAM_MIP_Strategy_File=1
CPXPARAM_MIP_Strategy_HeuristicFreq=0
CPXPARAM_MIP_Strategy_LBHeur=0
CPXPARAM_MIP_Strategy_NodeSelect=1
CPXPARAM_MIP_Strategy_Order=1
CPXPARAM_MIP_Strategy_PresolveNode=0
CPXPARAM_MIP_Strategy_Probe=0
CPXPARAM_MIP_Strategy_RINSHeur=0
CPXPARAM_MIP_Strategy_StartAlgorithm=0
CPXPARAM_MIP_Strategy_SubAlgorithm=0
CPXPARAM_MIP_Strategy_VariableSelect=0
CPXPARAM_Network_NetFind=2
CPXPARAM_Network_Pricing=0
CPXPARAM_Parallel=1
CPXPARAM_Preprocessing_Aggregator=-1
CPXPARAM_Preprocessing_BoundStrength=-1
CPXPARAM_Preprocessing_CoeffReduce=-1
CPXPARAM_Preprocessing_Dependency=-1
CPXPARAM_Preprocessing_Dual=0
CPXPARAM_Preprocessing_Fill=10
CPXPARAM_Preprocessing_NumPass=-1
CPXPARAM_Preprocessing_Presolve=1
CPXPARAM_Preprocessing_QPMakePSD=1
CPXPARAM_Preprocessing_Reduce=3
CPXPARAM_Preprocessing_Relax=-1
CPXPARAM_Preprocessing_RepeatPresolve=-1
CPXPARAM_Preprocessing_Symmetry=-1
CPXPARAM_Read_Scale=0
CPXPARAM_Sifting_Algorithm=0
CPXPARAM_Simplex_Crash=1
CPXPARAM_Simplex_DGradient=0
CPXPARAM_Simplex_Limits_Perturbation=0
CPXPARAM_Simplex_Limits_Singularity=10
CPXPARAM_Simplex_PGradient=0
CPXPARAM_Simplex_Pricing=0
CPXPARAM_Simplex_Refactor=0
ObjectiveValue=21.94
Gap=21.94
UpperBound=1.65249e+06
LowerBound=1.28994e+06
SolverRuntimeSeconds=5.01264
SolverTerminationStatus=Normal
TimeEvaluated=126
MipStartUsed=0
ProducedMipStart=0
EndConfiguration
Configuration:
CPXPARAM_Advance=1
CPXPARAM_Barrier_Algorithm=0
CPXPARAM_Barrier_ColNonzeros=0
CPXPARAM_Barrier_Crossover=0
CPXPARAM_Barrier_Limits_Corrections=-1
CPXPARAM_Barrier_Ordering=0
CPXPARAM_Barrier_StartAlg=1
CPXPARAM_Emphasis_MIP=1
CPXPARAM_Emphasis_Memory=0
CPXPARAM_Emphasis_Numerical=0
CPXPARAM_Feasopt_Mode=0
CPXPARAM_LPMethod=0
CPXPARAM_MIP_Cuts_Cliques=3
CPXPARAM_MIP_Cuts_Covers=3
CPXPARAM_MIP_Cuts_Disjunctive=1
CPXPARAM_MIP_Cuts_FlowCovers=1
CPXPARAM_MIP_Cuts_GUBCovers=0
CPXPARAM_MIP_Cuts_Gomory=1
CPXPARAM_MIP_Cuts_Implied=2
CPXPARAM_MIP_Cuts_MIRCut=2
CPXPARAM_MIP_Cuts_PathCut=0
CPXPARAM_MIP_Limits_AggForCut=3
CPXPARAM_MIP_Limits_CutPasses=0
CPXPARAM_MIP_Limits_CutsFactor=-1
CPXPARAM_MIP_Limits_GomoryCand=50
CPXPARAM_MIP_Limits_GomoryPass=0
CPXPARAM_MIP_Limits_Nodes=9223372036800000000
CPXPARAM_MIP_Limits_ProbeTime=1e+75
CPXPARAM_MIP_Limits_RepairTries=0
CPXPARAM_MIP_Limits_StrongCand=10
CPXPARAM_MIP_Limits_StrongIt=0
CPXPARAM_MIP_OrderType=0
CPXPARAM_MIP_Strategy_BBInterval=7
CPXPARAM_MIP_Strategy_Branch=0
CPXPARAM_MIP_Strategy_Dive=0
CPXPARAM_MIP_Strategy_File=1
CPXPARAM_MIP_Strategy_HeuristicFreq=0
CPXPARAM_MIP_Strategy_LBHeur=0
CPXPARAM_MIP_Strategy_NodeSelect=1
CPXPARAM_MIP_Strategy_Order=1
CPXPARAM_MIP_Strategy_PresolveNode=0
CPXPARAM_MIP_Strategy_Probe=0
CPXPARAM_MIP_Strategy_RINSHeur=0
CPXPARAM_MIP_Strategy_StartAlgorithm=0
CPXPARAM_MIP_Strategy_SubAlgorithm=0
CPXPARAM_MIP_Strategy_VariableSelect=0
CPXPARAM_Network_NetFind=2
CPXPARAM_Network_Pricing=0
CPXPARAM_Parallel=1
CPXPARAM_Preprocessing_Aggregator=-1
CPXPARAM_Preprocessing_BoundStrength=-1
CPXPARAM_Preprocessing_CoeffReduce=-1
CPXPARAM_Preprocessing_Dependency=-1
CPXPARAM_Preprocessing_Dual=0
CPXPARAM_Preprocessing_Fill=10
CPXPARAM_Preprocessing_NumPass=-1
CPXPARAM_Preprocessing_Presolve=1
CPXPARAM_Preprocessing_QPMakePSD=1
CPXPARAM_Preprocessing_Reduce=3
CPXPARAM_Preprocessing_Relax=-1
CPXPARAM_Preprocessing_RepeatPresolve=-1
CPXPARAM_Preprocessing_Symmetry=-1
CPXPARAM_Read_Scale=0
CPXPARAM_Sifting_Algorithm=0
CPXPARAM_Simplex_Crash=1
CPXPARAM_Simplex_DGradient=0
CPXPARAM_Simplex_Limits_Perturbation=0
CPXPARAM_Simplex_Limits_Singularity=10
CPXPARAM_Simplex_PGradient=0
CPXPARAM_Simplex_Pricing=0
CPXPARAM_Simplex_Refactor=0
ObjectiveValue=19.4
Gap=19.4
UpperBound=1.6004e+06
LowerBound=1.28994e+06
SolverRuntimeSeconds=5.01224
SolverTerminationStatus=Normal
TimeEvaluated=131
MipStartUsed=0
ProducedMipStart=0
EndConfiguration
Configuration:
CPXPARAM_Advance=1
CPXPARAM_Barrier_Algorithm=0
CPXPARAM_Barrier_ColNonzeros=0
CPXPARAM_Barrier_Crossover=0
CPXPARAM_Barrier_Limits_Corrections=-1
CPXPARAM_Barrier_Ordering=0
CPXPARAM_Barrier_StartAlg=1
CPXPARAM_Emphasis_MIP=1
CPXPARAM_Emphasis_Memory=0
CPXPARAM_Emphasis_Numerical=0
CPXPARAM_Feasopt_Mode=0
CPXPARAM_LPMethod=0
CPXPARAM_MIP_Cuts_Cliques=3
CPXPARAM_MIP_Cuts_Covers=0
CPXPARAM_MIP_Cuts_Disjunctive=1
CPXPARAM_MIP_Cuts_FlowCovers=-1
CPXPARAM_MIP_Cuts_GUBCovers=0
CPXPARAM_MIP_Cuts_Gomory=1
CPXPARAM_MIP_Cuts_Implied=2
CPXPARAM_MIP_Cuts_MIRCut=2
CPXPARAM_MIP_Cuts_PathCut=0
CPXPARAM_MIP_Limits_AggForCut=3
CPXPARAM_MIP_Limits_CutPasses=0
CPXPARAM_MIP_Limits_CutsFactor=-1
CPXPARAM_MIP_Limits_GomoryCand=50
CPXPARAM_MIP_Limits_GomoryPass=0
CPXPARAM_MIP_Limits_Nodes=9223372036800000000
CPXPARAM_MIP_Limits_ProbeTime=1e+75
CPXPARAM_MIP_Limits_RepairTries=0
CPXPARAM_MIP_Limits_StrongCand=10
CPXPARAM_MIP_Limits_StrongIt=0
CPXPARAM_MIP_OrderType=0
CPXPARAM_MIP_Strategy_BBInterval=7
CPXPARAM_MIP_Strategy_Branch=0
CPXPARAM_MIP_Strategy_Dive=0
CPXPARAM_MIP_Strategy_File=1
CPXPARAM_MIP_Strategy_HeuristicFreq=0
CPXPARAM_MIP_Strategy_LBHeur=0
CPXPARAM_MIP_Strategy_NodeSelect=1
CPXPARAM_MIP_Strategy_Order=1
CPXPARAM_MIP_Strategy_PresolveNode=0
CPXPARAM_MIP_Strategy_Probe=0
CPXPARAM_MIP_Strategy_RINSHeur=0
CPXPARAM_MIP_Strategy_StartAlgorithm=0
CPXPARAM_MIP_Strategy_SubAlgorithm=0
CPXPARAM_MIP_Strategy_VariableSelect=0
CPXPARAM_Network_NetFind=2
CPXPARAM_Network_Pricing=0
CPXPARAM_Parallel=1
CPXPARAM_Preprocessing_Aggregator=-1
CPXPARAM_Preprocessing_BoundStrength=-1
CPXPARAM_Preprocessing_CoeffReduce=-1
CPXPARAM_Preprocessing_Dependency=-1
CPXPARAM_Preprocessing_Dual=0
CPXPARAM_Preprocessing_Fill=10
CPXPARAM_Preprocessing_NumPass=-1
CPXPARAM_Preprocessing_Presolve=1
CPXPARAM_Preprocessing_QPMakePSD=1
CPXPARAM_Preprocessing_Reduce=3
CPXPARAM_Preprocessing_Relax=-1
CPXPARAM_Preprocessing_RepeatPresolve=-1
CPXPARAM_Preprocessing_Symmetry=-1
CPXPARAM_Read_Scale=0
CPXPARAM_Sifting_Algorithm=0
CPXPARAM_Simplex_Crash=1
CPXPARAM_Simplex_DGradient=0
CPXPARAM_Simplex_Limits_Perturbation=0
CPXPARAM_Simplex_Limits_Singularity=10
CPXPARAM_Simplex_PGradient=0
CPXPARAM_Simplex_Pricing=0
CPXPARAM_Simplex_Refactor=0
ObjectiveValue=53.74
Gap=53.74
UpperBound=2.52333e+06
LowerBound=1.1673e+06
SolverRuntimeSeconds=5.00654
SolverTerminationStatus=Normal
TimeEvaluated=136
MipStartUsed=0
ProducedMipStart=0
EndConfiguration
Configuration:
CPXPARAM_Advance=1
CPXPARAM_Barrier_Algorithm=0
CPXPARAM_Barrier_ColNonzeros=0
CPXPARAM_Barrier_Crossover=0
CPXPARAM_Barrier_Limits_Corrections=-1
CPXPARAM_Barrier_Ordering=0
CPXPARAM_Barrier_StartAlg=1
CPXPARAM_Emphasis_MIP=1
CPXPARAM_Emphasis_Memory=0
CPXPARAM_Emphasis_Numerical=0
CPXPARAM_Feasopt_Mode=0
CPXPARAM_LPMethod=0
CPXPARAM_MIP_Cuts_Cliques=3
CPXPARAM_MIP_Cuts_Covers=0
CPXPARAM_MIP_Cuts_Disjunctive=1
CPXPARAM_MIP_Cuts_FlowCovers=1
CPXPARAM_MIP_Cuts_GUBCovers=0
CPXPARAM_MIP_Cuts_Gomory=-1
CPXPARAM_MIP_Cuts_Implied=2
CPXPARAM_MIP_Cuts_MIRCut=2
CPXPARAM_MIP_Cuts_PathCut=0
CPXPARAM_MIP_Limits_AggForCut=3
CPXPARAM_MIP_Limits_CutPasses=0
CPXPARAM_MIP_Limits_CutsFactor=-1
CPXPARAM_MIP_Limits_GomoryCand=50
CPXPARAM_MIP_Limits_GomoryPass=0
CPXPARAM_MIP_Limits_Nodes=9223372036800000000
CPXPARAM_MIP_Limits_ProbeTime=1e+75
CPXPARAM_MIP_Limits_RepairTries=0
CPXPARAM_MIP_Limits_StrongCand=10
CPXPARAM_MIP_Limits_StrongIt=0
CPXPARAM_MIP_OrderType=0
CPXPARAM_MIP_Strategy_BBInterval=7
CPXPARAM_MIP_Strategy_Branch=0
CPXPARAM_MIP_Strategy_Dive=0
CPXPARAM_MIP_Strategy_File=1
CPXPARAM_MIP_Strategy_HeuristicFreq=0
CPXPARAM_MIP_Strategy_LBHeur=0
CPXPARAM_MIP_Strategy_NodeSelect=1
CPXPARAM_MIP_Strategy_Order=1
CPXPARAM_MIP_Strategy_PresolveNode=0
CPXPARAM_MIP_Strategy_Probe=0
CPXPARAM_MIP_Strategy_RINSHeur=0
CPXPARAM_MIP_Strategy_StartAlgorithm=0
CPXPARAM_MIP_Strategy_SubAlgorithm=0
CPXPARAM_MIP_Strategy_VariableSelect=0
CPXPARAM_Network_NetFind=2
CPXPARAM_Network_Pricing=0
CPXPARAM_Parallel=1
CPXPARAM_Preprocessing_Aggregator=-1
CPXPARAM_Preprocessing_BoundStrength=-1
CPXPARAM_Preprocessing_CoeffReduce=-1
CPXPARAM_Preprocessing_Dependency=-1
CPXPARAM_Preprocessing_Dual=0
CPXPARAM_Preprocessing_Fill=10
CPXPARAM_Preprocessing_NumPass=-1
CPXPARAM_Preprocessing_Presolve=1
CPXPARAM_Preprocessing_QPMakePSD=1
CPXPARAM_Preprocessing_Reduce=3
CPXPARAM_Preprocessing_Relax=-1
CPXPARAM_Preprocessing_RepeatPresolve=-1
CPXPARAM_Preprocessing_Symmetry=-1
CPXPARAM_Read_Scale=0
CPXPARAM_Sifting_Algorithm=0
CPXPARAM_Simplex_Crash=1
CPXPARAM_Simplex_DGradient=0
CPXPARAM_Simplex_Limits_Perturbation=0
CPXPARAM_Simplex_Limits_Singularity=10
CPXPARAM_Simplex_PGradient=0
CPXPARAM_Simplex_Pricing=0
CPXPARAM_Simplex_Refactor=0
ObjectiveValue=18.38
Gap=18.38
UpperBound=1.6271e+06
LowerBound=1.32798e+06
SolverRuntimeSeconds=5.01162
SolverTerminationStatus=Normal
TimeEvaluated=141
MipStartUsed=0
ProducedMipStart=0
EndConfiguration
